p cnf 243 1050
1 2 3 0
4 5 6 0
7 8 9 0
-1 -4 -7 0
-2 -5 -8 0
-3 -6 -9 0
10 11 12 0
13 14 15 0
16 17 18 0
-10 -13 -16 0
-11 -14 -17 0
-12 -15 -18 0
19 20 21 0
22 23 24 0
25 26 27 0
-19 -22 -25 0
-20 -23 -26 0
-21 -24 -27 0
28 29 30 0
31 32 33 0
34 35 36 0
-28 -31 -34 0
-29 -32 -35 0
-30 -33 -36 0
37 38 39 0
40 41 42 0
43 44 45 0
-37 -40 -43 0
-38 -41 -44 0
-39 -42 -45 0
46 47 48 0
49 50 51 0
52 53 54 0
-46 -49 -52 0
-47 -50 -53 0
-48 -51 -54 0
55 56 57 0
58 59 60 0
61 62 63 0
-55 -58 -61 0
-56 -59 -62 0
-57 -60 -63 0
64 65 66 0
67 68 69 0
70 71 72 0
-64 -67 -70 0
-65 -68 -71 0
-66 -69 -72 0
73 74 75 0
76 77 78 0
79 80 81 0
-73 -76 -79 0
-74 -77 -80 0
-75 -78 -81 0
82 83 84 0
85 86 87 0
88 89 90 0
-82 -85 -88 0
-83 -86 -89 0
-84 -87 -90 0
91 92 93 0
94 95 96 0
97 98 99 0
-91 -94 -97 0
-92 -95 -98 0
-93 -96 -99 0
100 101 102 0
103 104 105 0
106 107 108 0
-100 -103 -106 0
-101 -104 -107 0
-102 -105 -108 0
109 110 111 0
112 113 114 0
115 116 117 0
-109 -112 -115 0
-110 -113 -116 0
-111 -114 -117 0
118 119 120 0
121 122 123 0
124 125 126 0
-118 -121 -124 0
-119 -122 -125 0
-120 -123 -126 0
127 128 129 0
130 131 132 0
133 134 135 0
-127 -130 -133 0
-128 -131 -134 0
-129 -132 -135 0
136 137 138 0
139 140 141 0
142 143 144 0
-136 -139 -142 0
-137 -140 -143 0
-138 -141 -144 0
145 146 147 0
148 149 150 0
151 152 153 0
-145 -148 -151 0
-146 -149 -152 0
-147 -150 -153 0
154 155 156 0
157 158 159 0
160 161 162 0
-154 -157 -160 0
-155 -158 -161 0
-156 -159 -162 0
163 164 165 0
166 167 168 0
169 170 171 0
-163 -166 -169 0
-164 -167 -170 0
-165 -168 -171 0
172 173 174 0
175 176 177 0
178 179 180 0
-172 -175 -178 0
-173 -176 -179 0
-174 -177 -180 0
181 182 183 0
184 185 186 0
187 188 189 0
-181 -184 -187 0
-182 -185 -188 0
-183 -186 -189 0
190 191 192 0
193 194 195 0
196 197 198 0
-190 -193 -196 0
-191 -194 -197 0
-192 -195 -198 0
199 200 201 0
202 203 204 0
205 206 207 0
-199 -202 -205 0
-200 -203 -206 0
-201 -204 -207 0
208 209 210 0
211 212 213 0
214 215 216 0
-208 -211 -214 0
-209 -212 -215 0
-210 -213 -216 0
217 218 219 0
220 221 222 0
223 224 225 0
-217 -220 -223 0
-218 -221 -224 0
-219 -222 -225 0
226 227 228 0
229 230 231 0
232 233 234 0
-226 -229 -232 0
-227 -230 -233 0
-228 -231 -234 0
235 236 237 0
238 239 240 0
241 242 243 0
-235 -238 -241 0
-236 -239 -242 0
-237 -240 -243 0
1 2 3 0
10 11 12 0
19 20 21 0
-1 -10 -19 0
-2 -11 -20 0
-3 -12 -21 0
4 5 6 0
13 14 15 0
22 23 24 0
-4 -13 -22 0
-5 -14 -23 0
-6 -15 -24 0
7 8 9 0
16 17 18 0
25 26 27 0
-7 -16 -25 0
-8 -17 -26 0
-9 -18 -27 0
28 29 30 0
37 38 39 0
46 47 48 0
-28 -37 -46 0
-29 -38 -47 0
-30 -39 -48 0
31 32 33 0
40 41 42 0
49 50 51 0
-31 -40 -49 0
-32 -41 -50 0
-33 -42 -51 0
34 35 36 0
43 44 45 0
52 53 54 0
-34 -43 -52 0
-35 -44 -53 0
-36 -45 -54 0
55 56 57 0
64 65 66 0
73 74 75 0
-55 -64 -73 0
-56 -65 -74 0
-57 -66 -75 0
58 59 60 0
67 68 69 0
76 77 78 0
-58 -67 -76 0
-59 -68 -77 0
-60 -69 -78 0
61 62 63 0
70 71 72 0
79 80 81 0
-61 -70 -79 0
-62 -71 -80 0
-63 -72 -81 0
82 83 84 0
91 92 93 0
100 101 102 0
-82 -91 -100 0
-83 -92 -101 0
-84 -93 -102 0
85 86 87 0
94 95 96 0
103 104 105 0
-85 -94 -103 0
-86 -95 -104 0
-87 -96 -105 0
88 89 90 0
97 98 99 0
106 107 108 0
-88 -97 -106 0
-89 -98 -107 0
-90 -99 -108 0
109 110 111 0
118 119 120 0
127 128 129 0
-109 -118 -127 0
-110 -119 -128 0
-111 -120 -129 0
112 113 114 0
121 122 123 0
130 131 132 0
-112 -121 -130 0
-113 -122 -131 0
-114 -123 -132 0
115 116 117 0
124 125 126 0
133 134 135 0
-115 -124 -133 0
-116 -125 -134 0
-117 -126 -135 0
136 137 138 0
145 146 147 0
154 155 156 0
-136 -145 -154 0
-137 -146 -155 0
-138 -147 -156 0
139 140 141 0
148 149 150 0
157 158 159 0
-139 -148 -157 0
-140 -149 -158 0
-141 -150 -159 0
142 143 144 0
151 152 153 0
160 161 162 0
-142 -151 -160 0
-143 -152 -161 0
-144 -153 -162 0
163 164 165 0
172 173 174 0
181 182 183 0
-163 -172 -181 0
-164 -173 -182 0
-165 -174 -183 0
166 167 168 0
175 176 177 0
184 185 186 0
-166 -175 -184 0
-167 -176 -185 0
-168 -177 -186 0
169 170 171 0
178 179 180 0
187 188 189 0
-169 -178 -187 0
-170 -179 -188 0
-171 -180 -189 0
190 191 192 0
199 200 201 0
208 209 210 0
-190 -199 -208 0
-191 -200 -209 0
-192 -201 -210 0
193 194 195 0
202 203 204 0
211 212 213 0
-193 -202 -211 0
-194 -203 -212 0
-195 -204 -213 0
196 197 198 0
205 206 207 0
214 215 216 0
-196 -205 -214 0
-197 -206 -215 0
-198 -207 -216 0
217 218 219 0
226 227 228 0
235 236 237 0
-217 -226 -235 0
-218 -227 -236 0
-219 -228 -237 0
220 221 222 0
229 230 231 0
238 239 240 0
-220 -229 -238 0
-221 -230 -239 0
-222 -231 -240 0
223 224 225 0
232 233 234 0
241 242 243 0
-223 -232 -241 0
-224 -233 -242 0
-225 -234 -243 0
1 2 3 0
13 14 15 0
25 26 27 0
-1 -13 -25 0
-2 -14 -26 0
-3 -15 -27 0
28 29 30 0
40 41 42 0
52 53 54 0
-28 -40 -52 0
-29 -41 -53 0
-30 -42 -54 0
55 56 57 0
67 68 69 0
79 80 81 0
-55 -67 -79 0
-56 -68 -80 0
-57 -69 -81 0
82 83 84 0
94 95 96 0
106 107 108 0
-82 -94 -106 0
-83 -95 -107 0
-84 -96 -108 0
109 110 111 0
121 122 123 0
133 134 135 0
-109 -121 -133 0
-110 -122 -134 0
-111 -123 -135 0
136 137 138 0
148 149 150 0
160 161 162 0
-136 -148 -160 0
-137 -149 -161 0
-138 -150 -162 0
163 164 165 0
175 176 177 0
187 188 189 0
-163 -175 -187 0
-164 -176 -188 0
-165 -177 -189 0
190 191 192 0
202 203 204 0
214 215 216 0
-190 -202 -214 0
-191 -203 -215 0
-192 -204 -216 0
217 218 219 0
229 230 231 0
241 242 243 0
-217 -229 -241 0
-218 -230 -242 0
-219 -231 -243 0
1 2 3 0
28 29 30 0
55 56 57 0
-1 -28 -55 0
-2 -29 -56 0
-3 -30 -57 0
4 5 6 0
31 32 33 0
58 59 60 0
-4 -31 -58 0
-5 -32 -59 0
-6 -33 -60 0
7 8 9 0
34 35 36 0
61 62 63 0
-7 -34 -61 0
-8 -35 -62 0
-9 -36 -63 0
10 11 12 0
37 38 39 0
64 65 66 0
-10 -37 -64 0
-11 -38 -65 0
-12 -39 -66 0
13 14 15 0
40 41 42 0
67 68 69 0
-13 -40 -67 0
-14 -41 -68 0
-15 -42 -69 0
16 17 18 0
43 44 45 0
70 71 72 0
-16 -43 -70 0
-17 -44 -71 0
-18 -45 -72 0
19 20 21 0
46 47 48 0
73 74 75 0
-19 -46 -73 0
-20 -47 -74 0
-21 -48 -75 0
22 23 24 0
49 50 51 0
76 77 78 0
-22 -49 -76 0
-23 -50 -77 0
-24 -51 -78 0
25 26 27 0
52 53 54 0
79 80 81 0
-25 -52 -79 0
-26 -53 -80 0
-27 -54 -81 0
82 83 84 0
109 110 111 0
136 137 138 0
-82 -109 -136 0
-83 -110 -137 0
-84 -111 -138 0
85 86 87 0
112 113 114 0
139 140 141 0
-85 -112 -139 0
-86 -113 -140 0
-87 -114 -141 0
88 89 90 0
115 116 117 0
142 143 144 0
-88 -115 -142 0
-89 -116 -143 0
-90 -117 -144 0
91 92 93 0
118 119 120 0
145 146 147 0
-91 -118 -145 0
-92 -119 -146 0
-93 -120 -147 0
94 95 96 0
121 122 123 0
148 149 150 0
-94 -121 -148 0
-95 -122 -149 0
-96 -123 -150 0
97 98 99 0
124 125 126 0
151 152 153 0
-97 -124 -151 0
-98 -125 -152 0
-99 -126 -153 0
100 101 102 0
127 128 129 0
154 155 156 0
-100 -127 -154 0
-101 -128 -155 0
-102 -129 -156 0
103 104 105 0
130 131 132 0
157 158 159 0
-103 -130 -157 0
-104 -131 -158 0
-105 -132 -159 0
106 107 108 0
133 134 135 0
160 161 162 0
-106 -133 -160 0
-107 -134 -161 0
-108 -135 -162 0
163 164 165 0
190 191 192 0
217 218 219 0
-163 -190 -217 0
-164 -191 -218 0
-165 -192 -219 0
166 167 168 0
193 194 195 0
220 221 222 0
-166 -193 -220 0
-167 -194 -221 0
-168 -195 -222 0
169 170 171 0
196 197 198 0
223 224 225 0
-169 -196 -223 0
-170 -197 -224 0
-171 -198 -225 0
172 173 174 0
199 200 201 0
226 227 228 0
-172 -199 -226 0
-173 -200 -227 0
-174 -201 -228 0
175 176 177 0
202 203 204 0
229 230 231 0
-175 -202 -229 0
-176 -203 -230 0
-177 -204 -231 0
178 179 180 0
205 206 207 0
232 233 234 0
-178 -205 -232 0
-179 -206 -233 0
-180 -207 -234 0
181 182 183 0
208 209 210 0
235 236 237 0
-181 -208 -235 0
-182 -209 -236 0
-183 -210 -237 0
184 185 186 0
211 212 213 0
238 239 240 0
-184 -211 -238 0
-185 -212 -239 0
-186 -213 -240 0
187 188 189 0
214 215 216 0
241 242 243 0
-187 -214 -241 0
-188 -215 -242 0
-189 -216 -243 0
1 2 3 0
31 32 33 0
61 62 63 0
-1 -31 -61 0
-2 -32 -62 0
-3 -33 -63 0
10 11 12 0
40 41 42 0
70 71 72 0
-10 -40 -70 0
-11 -41 -71 0
-12 -42 -72 0
19 20 21 0
49 50 51 0
79 80 81 0
-19 -49 -79 0
-20 -50 -80 0
-21 -51 -81 0
82 83 84 0
112 113 114 0
142 143 144 0
-82 -112 -142 0
-83 -113 -143 0
-84 -114 -144 0
91 92 93 0
121 122 123 0
151 152 153 0
-91 -121 -151 0
-92 -122 -152 0
-93 -123 -153 0
100 101 102 0
130 131 132 0
160 161 162 0
-100 -130 -160 0
-101 -131 -161 0
-102 -132 -162 0
163 164 165 0
193 194 195 0
223 224 225 0
-163 -193 -223 0
-164 -194 -224 0
-165 -195 -225 0
172 173 174 0
202 203 204 0
232 233 234 0
-172 -202 -232 0
-173 -203 -233 0
-174 -204 -234 0
181 182 183 0
211 212 213 0
241 242 243 0
-181 -211 -241 0
-182 -212 -242 0
-183 -213 -243 0
1 2 3 0
37 38 39 0
73 74 75 0
-1 -37 -73 0
-2 -38 -74 0
-3 -39 -75 0
4 5 6 0
40 41 42 0
76 77 78 0
-4 -40 -76 0
-5 -41 -77 0
-6 -42 -78 0
7 8 9 0
43 44 45 0
79 80 81 0
-7 -43 -79 0
-8 -44 -80 0
-9 -45 -81 0
82 83 84 0
118 119 120 0
154 155 156 0
-82 -118 -154 0
-83 -119 -155 0
-84 -120 -156 0
85 86 87 0
121 122 123 0
157 158 159 0
-85 -121 -157 0
-86 -122 -158 0
-87 -123 -159 0
88 89 90 0
124 125 126 0
160 161 162 0
-88 -124 -160 0
-89 -125 -161 0
-90 -126 -162 0
163 164 165 0
199 200 201 0
235 236 237 0
-163 -199 -235 0
-164 -200 -236 0
-165 -201 -237 0
166 167 168 0
202 203 204 0
238 239 240 0
-166 -202 -238 0
-167 -203 -239 0
-168 -204 -240 0
169 170 171 0
205 206 207 0
241 242 243 0
-169 -205 -241 0
-170 -206 -242 0
-171 -207 -243 0
1 2 3 0
40 41 42 0
79 80 81 0
-1 -40 -79 0
-2 -41 -80 0
-3 -42 -81 0
82 83 84 0
121 122 123 0
160 161 162 0
-82 -121 -160 0
-83 -122 -161 0
-84 -123 -162 0
163 164 165 0
202 203 204 0
241 242 243 0
-163 -202 -241 0
-164 -203 -242 0
-165 -204 -243 0
1 2 3 0
82 83 84 0
163 164 165 0
-1 -82 -163 0
-2 -83 -164 0
-3 -84 -165 0
4 5 6 0
85 86 87 0
166 167 168 0
-4 -85 -166 0
-5 -86 -167 0
-6 -87 -168 0
7 8 9 0
88 89 90 0
169 170 171 0
-7 -88 -169 0
-8 -89 -170 0
-9 -90 -171 0
10 11 12 0
91 92 93 0
172 173 174 0
-10 -91 -172 0
-11 -92 -173 0
-12 -93 -174 0
13 14 15 0
94 95 96 0
175 176 177 0
-13 -94 -175 0
-14 -95 -176 0
-15 -96 -177 0
16 17 18 0
97 98 99 0
178 179 180 0
-16 -97 -178 0
-17 -98 -179 0
-18 -99 -180 0
19 20 21 0
100 101 102 0
181 182 183 0
-19 -100 -181 0
-20 -101 -182 0
-21 -102 -183 0
22 23 24 0
103 104 105 0
184 185 186 0
-22 -103 -184 0
-23 -104 -185 0
-24 -105 -186 0
25 26 27 0
106 107 108 0
187 188 189 0
-25 -106 -187 0
-26 -107 -188 0
-27 -108 -189 0
28 29 30 0
109 110 111 0
190 191 192 0
-28 -109 -190 0
-29 -110 -191 0
-30 -111 -192 0
31 32 33 0
112 113 114 0
193 194 195 0
-31 -112 -193 0
-32 -113 -194 0
-33 -114 -195 0
34 35 36 0
115 116 117 0
196 197 198 0
-34 -115 -196 0
-35 -116 -197 0
-36 -117 -198 0
37 38 39 0
118 119 120 0
199 200 201 0
-37 -118 -199 0
-38 -119 -200 0
-39 -120 -201 0
40 41 42 0
121 122 123 0
202 203 204 0
-40 -121 -202 0
-41 -122 -203 0
-42 -123 -204 0
43 44 45 0
124 125 126 0
205 206 207 0
-43 -124 -205 0
-44 -125 -206 0
-45 -126 -207 0
46 47 48 0
127 128 129 0
208 209 210 0
-46 -127 -208 0
-47 -128 -209 0
-48 -129 -210 0
49 50 51 0
130 131 132 0
211 212 213 0
-49 -130 -211 0
-50 -131 -212 0
-51 -132 -213 0
52 53 54 0
133 134 135 0
214 215 216 0
-52 -133 -214 0
-53 -134 -215 0
-54 -135 -216 0
55 56 57 0
136 137 138 0
217 218 219 0
-55 -136 -217 0
-56 -137 -218 0
-57 -138 -219 0
58 59 60 0
139 140 141 0
220 221 222 0
-58 -139 -220 0
-59 -140 -221 0
-60 -141 -222 0
61 62 63 0
142 143 144 0
223 224 225 0
-61 -142 -223 0
-62 -143 -224 0
-63 -144 -225 0
64 65 66 0
145 146 147 0
226 227 228 0
-64 -145 -226 0
-65 -146 -227 0
-66 -147 -228 0
67 68 69 0
148 149 150 0
229 230 231 0
-67 -148 -229 0
-68 -149 -230 0
-69 -150 -231 0
70 71 72 0
151 152 153 0
232 233 234 0
-70 -151 -232 0
-71 -152 -233 0
-72 -153 -234 0
73 74 75 0
154 155 156 0
235 236 237 0
-73 -154 -235 0
-74 -155 -236 0
-75 -156 -237 0
76 77 78 0
157 158 159 0
238 239 240 0
-76 -157 -238 0
-77 -158 -239 0
-78 -159 -240 0
79 80 81 0
160 161 162 0
241 242 243 0
-79 -160 -241 0
-80 -161 -242 0
-81 -162 -243 0
1 2 3 0
85 86 87 0
169 170 171 0
-1 -85 -169 0
-2 -86 -170 0
-3 -87 -171 0
10 11 12 0
94 95 96 0
178 179 180 0
-10 -94 -178 0
-11 -95 -179 0
-12 -96 -180 0
19 20 21 0
103 104 105 0
187 188 189 0
-19 -103 -187 0
-20 -104 -188 0
-21 -105 -189 0
28 29 30 0
112 113 114 0
196 197 198 0
-28 -112 -196 0
-29 -113 -197 0
-30 -114 -198 0
37 38 39 0
121 122 123 0
205 206 207 0
-37 -121 -205 0
-38 -122 -206 0
-39 -123 -207 0
46 47 48 0
130 131 132 0
214 215 216 0
-46 -130 -214 0
-47 -131 -215 0
-48 -132 -216 0
55 56 57 0
139 140 141 0
223 224 225 0
-55 -139 -223 0
-56 -140 -224 0
-57 -141 -225 0
64 65 66 0
148 149 150 0
232 233 234 0
-64 -148 -232 0
-65 -149 -233 0
-66 -150 -234 0
73 74 75 0
157 158 159 0
241 242 243 0
-73 -157 -241 0
-74 -158 -242 0
-75 -159 -243 0
1 2 3 0
91 92 93 0
181 182 183 0
-1 -91 -181 0
-2 -92 -182 0
-3 -93 -183 0
4 5 6 0
94 95 96 0
184 185 186 0
-4 -94 -184 0
-5 -95 -185 0
-6 -96 -186 0
7 8 9 0
97 98 99 0
187 188 189 0
-7 -97 -187 0
-8 -98 -188 0
-9 -99 -189 0
28 29 30 0
118 119 120 0
208 209 210 0
-28 -118 -208 0
-29 -119 -209 0
-30 -120 -210 0
31 32 33 0
121 122 123 0
211 212 213 0
-31 -121 -211 0
-32 -122 -212 0
-33 -123 -213 0
34 35 36 0
124 125 126 0
214 215 216 0
-34 -124 -214 0
-35 -125 -215 0
-36 -126 -216 0
55 56 57 0
145 146 147 0
235 236 237 0
-55 -145 -235 0
-56 -146 -236 0
-57 -147 -237 0
58 59 60 0
148 149 150 0
238 239 240 0
-58 -148 -238 0
-59 -149 -239 0
-60 -150 -240 0
61 62 63 0
151 152 153 0
241 242 243 0
-61 -151 -241 0
-62 -152 -242 0
-63 -153 -243 0
1 2 3 0
94 95 96 0
187 188 189 0
-1 -94 -187 0
-2 -95 -188 0
-3 -96 -189 0
28 29 30 0
121 122 123 0
214 215 216 0
-28 -121 -214 0
-29 -122 -215 0
-30 -123 -216 0
55 56 57 0
148 149 150 0
241 242 243 0
-55 -148 -241 0
-56 -149 -242 0
-57 -150 -243 0
1 2 3 0
109 110 111 0
217 218 219 0
-1 -109 -217 0
-2 -110 -218 0
-3 -111 -219 0
4 5 6 0
112 113 114 0
220 221 222 0
-4 -112 -220 0
-5 -113 -221 0
-6 -114 -222 0
7 8 9 0
115 116 117 0
223 224 225 0
-7 -115 -223 0
-8 -116 -224 0
-9 -117 -225 0
10 11 12 0
118 119 120 0
226 227 228 0
-10 -118 -226 0
-11 -119 -227 0
-12 -120 -228 0
13 14 15 0
121 122 123 0
229 230 231 0
-13 -121 -229 0
-14 -122 -230 0
-15 -123 -231 0
16 17 18 0
124 125 126 0
232 233 234 0
-16 -124 -232 0
-17 -125 -233 0
-18 -126 -234 0
19 20 21 0
127 128 129 0
235 236 237 0
-19 -127 -235 0
-20 -128 -236 0
-21 -129 -237 0
22 23 24 0
130 131 132 0
238 239 240 0
-22 -130 -238 0
-23 -131 -239 0
-24 -132 -240 0
25 26 27 0
133 134 135 0
241 242 243 0
-25 -133 -241 0
-26 -134 -242 0
-61 -142 -223 0
-27 -135 -243 0
1 2 3 0
112 113 114 0
223 224 225 0
-1 -112 -223 0
-2 -113 -224 0
-3 -114 -225 0
10 11 12 0
121 122 123 0
232 233 234 0
-10 -121 -232 0
-11 -122 -233 0
-12 -123 -234 0
19 20 21 0
130 131 132 0
241 242 243 0
-19 -130 -241 0
-20 -131 -242 0
-21 -132 -243 0
1 2 3 0
118 119 120 0
235 236 237 0
-1 -118 -235 0
-2 -119 -236 0
-3 -120 -237 0
4 5 6 0
121 122 123 0
238 239 240 0
-4 -121 -238 0
-5 -122 -239 0
-6 -123 -240 0
7 8 9 0
124 125 126 0
241 242 243 0
-7 -124 -241 0
-8 -125 -242 0
-9 -126 -243 0
1 2 3 0
121 122 123 0
241 242 243 0
-1 -121 -241 0
-2 -122 -242 0
-3 -123 -243 0